37
75
52	3
51	1
50	2
49	3
48	3
47	2
46	5
45	3
44	3
43	4
42	3
41	3
40	4
39	1
38	4
37	3
36	1
35	2
34	4
33	2
32	3
31	2
30	3
29	2
28	4
27	4
26	5
24	4
23	2
22	2
21	1
20	3
19	1
18	1
17	1
16	2
15	4
